numWeeksScheduled =  6 ;

Workdays =  [5, 5, 5, 5, 5, 5] ;

workforce_size =  800 ;

numLines =  24 ;

numJobs =  46 ;

RequiredWorkEffort =  [229, 120, 120, 12374, 11966, 14203, 5091, 88, 762, 2691, 3104, 420, 17, 226, 43, 66, 1072, 283, 13, 919, 154, 2680, 40, 17, 30, 58, 120, 529, 588, 89, 464, 452, 389, 1187, 1086, 616, 3321, 4187, 552, 180, 71, 60, 60, 36, 1052, 1673] ;

WeeksTillDue =  [1, 6, 6, 6, 6, 6, 6, 1, 1, 1, 3, 3, 1, 1, 1, 1, 1, 1, 1, 1, 3, 3, 5, 5, 1, 5, 1, 6, 6, 6, 6, 6, 6, 1, 1, 1, 6, 6, 1, 3, 1, 6, 6, 1, 3, 3] ;

LineOfJob =  [24, 19, 19, 19, 19, 19, 19, 17, 17, 17, 17, 18, 21, 21, 21, 22, 22, 20, 20, 23, 23, 16, 11, 8, 9, 9, 10, 1, 1, 2, 2, 2, 5, 5, 5, 5, 4, 3, 3, 7, 6, 12, 13, 15, 15, 14] ;

